p cnf 936 1138
a 1 2 3 4 5 6 7 8 9 10 11 12 13 14 15 16 17 18 19 20 21 22 23 24 25 26 27 28 29 30 31 32 33 34 35 36 37 38 39 40 41 42 43 44 45 46 47 48 49 50 51 52 53 54 55 56 57 58 59 60 61 62 63 64 65 66 67 68 69 70 71 72 73 74 75 76 77 78 79 80 81 82 83 84 85 86 87 88 89 90 91 92 93 94 95 96 97 98 99 100 101 102 0
d 103 1 2 3 4 5 6 7 8 9 10 11 12 13 14 15 16 17 18 19 20 21 22 23 24 25 26 27 28 29 30 31 32 33 34 35 36 37 38 39 40 41 42 43 44 45 46 47 48 49 50 51 52 53 54 55 56 57 0
d 104 1 2 3 4 5 6 7 8 9 10 11 12 13 14 15 16 17 18 19 20 21 22 23 24 25 26 27 28 29 30 31 32 33 34 35 36 37 38 39 40 41 42 43 44 45 46 47 48 49 50 51 52 53 54 55 56 57 0
d 105 1 2 3 4 5 6 7 8 9 10 11 12 13 14 15 16 17 18 19 20 21 22 23 24 25 26 27 28 29 30 31 32 33 34 35 36 37 38 39 40 41 42 43 44 45 46 47 48 49 50 51 52 53 54 55 56 57 0
d 106 1 2 3 4 5 6 7 8 9 10 11 12 13 14 15 16 17 18 19 20 21 22 23 24 25 26 27 28 29 30 31 32 33 34 35 36 37 38 39 40 41 42 43 44 45 46 47 48 49 50 51 52 53 54 55 56 57 0
d 107 1 2 3 4 5 6 7 8 9 10 11 12 13 14 15 16 17 18 19 20 21 22 23 24 25 26 27 28 29 30 31 32 33 34 35 36 37 38 39 40 41 42 43 44 45 46 47 48 49 50 51 52 53 54 55 56 57 0
d 108 1 2 3 4 5 6 7 8 9 10 11 12 13 14 15 16 17 18 19 20 21 22 23 24 25 26 27 28 29 30 31 32 33 34 35 36 37 38 39 40 41 42 43 44 45 46 47 48 49 50 51 52 53 54 55 56 57 0
d 109 1 2 3 4 5 6 7 8 9 10 11 12 13 14 15 16 17 18 19 20 21 22 23 24 25 26 27 28 29 30 31 32 33 34 35 36 37 38 39 40 41 42 43 44 45 46 47 48 49 50 51 52 53 54 55 56 57 0
d 110 1 2 3 4 5 6 7 8 9 10 11 12 13 14 15 16 17 18 19 20 21 22 23 24 25 26 27 28 29 30 31 32 33 34 35 36 37 38 39 40 41 42 43 44 45 46 47 48 49 50 51 52 53 54 55 56 57 0
d 111 1 2 3 4 5 6 7 8 9 10 11 12 13 14 15 16 17 18 19 20 21 22 23 24 25 26 27 28 29 30 31 32 33 34 35 36 37 38 39 40 41 42 43 44 45 46 47 48 49 50 51 52 53 54 55 56 57 0
d 112 1 2 3 4 5 6 7 8 9 10 11 12 13 14 15 16 17 18 19 20 21 22 23 24 25 26 27 28 29 30 31 32 33 34 35 36 37 38 39 40 41 42 43 44 45 46 47 48 49 50 51 52 53 54 55 56 57 0
d 113 1 2 3 4 5 6 7 8 9 10 11 12 13 14 15 16 17 18 19 20 21 22 23 24 25 26 27 28 29 30 31 32 33 34 35 36 37 38 39 40 41 42 43 44 45 46 47 48 49 50 51 52 53 54 55 56 57 0
d 114 1 2 3 4 5 6 7 8 9 10 11 12 13 14 15 16 17 18 19 20 21 22 23 24 25 26 27 28 29 30 31 32 33 34 35 36 37 38 39 40 41 42 43 44 45 46 47 48 49 50 51 52 53 54 55 56 57 0
d 115 1 2 3 4 5 6 7 8 9 10 11 12 13 14 15 16 17 18 19 20 21 22 23 24 25 26 27 28 29 30 31 32 33 34 35 36 37 38 39 40 41 42 43 44 45 46 47 48 49 50 51 52 53 54 55 56 57 0
d 116 1 2 3 4 5 6 7 8 9 10 11 12 13 14 15 16 17 18 19 20 21 22 23 24 25 26 27 28 29 30 31 32 33 34 35 36 37 38 39 40 41 42 43 44 45 46 47 48 49 50 51 52 53 54 55 56 57 0
d 117 1 2 3 4 5 6 7 8 9 10 11 12 13 14 15 16 17 18 19 20 21 22 23 24 25 26 27 28 29 30 31 32 33 34 35 36 37 38 39 40 41 42 43 44 45 46 47 48 49 50 51 52 53 54 55 56 57 0
d 118 13 14 15 16 17 18 19 20 21 22 23 24 25 26 27 28 29 30 31 32 33 34 35 36 37 38 39 40 41 42 43 44 45 46 47 48 49 50 51 52 53 54 55 56 57 0
d 119 58 59 60 61 62 63 64 65 66 67 68 69 70 71 72 73 74 75 76 77 78 79 80 81 82 83 84 85 86 87 88 89 90 91 92 93 94 95 96 97 98 99 100 101 102 0
e 126 133 135 136 138 139 142 143 145 146 151 152 170 185 192 195 198 202 203 205 206 209 210 212 213 233 248 263 265 266 268 269 272 273 275 276 280 281 300 303 309 314 319 322 324 327 332 334 337 339 340 341 352 354 355 356 357 366 376 381 388 389 399 400 403 404 407 408 412 413 415 416 419 420 437 438 439 442 444 447 449 451 454 456 459 461 464 466 469 471 474 476 479 481 484 512 513 514 519 520 522 523 539 541 542 547 549 555 556 558 559 563 564 566 582 590 594 595 596 600 601 619 634 650 655 656 658 659 662 663 665 666 670 671 673 674 700 701 703 705 0
45 -46 90 -91 126 0
-45 90 -126 0
-45 -46 -90 -91 126 0
45 -90 -126 0
-45 46 -90 91 126 0
45 46 90 91 126 0
-46 91 -126 0
46 -91 -126 0
47 -48 92 -93 133 0
-47 92 -133 0
-47 -48 -92 -93 133 0
47 -92 -133 0
-47 48 -92 93 133 0
47 48 92 93 133 0
-48 93 -133 0
48 -93 -133 0
133 -170 0
53 54 55 56 98 99 100 101 -126 -133 135 136 138 139 142 143 145 146 151 152 170 0
-94 -135 0
49 -135 0
-49 94 135 0
94 -136 0
-49 -136 0
49 -94 136 0
-136 -170 0
53 54 55 -56 98 99 100 -101 -126 -133 135 136 138 139 142 143 145 146 151 152 170 0
-95 -138 0
50 -138 0
-50 95 138 0
95 -139 0
-50 -139 0
50 -95 139 0
-139 -170 0
53 54 -55 56 98 99 -100 101 -126 -133 135 136 138 139 142 143 145 146 151 152 170 0
53 54 -55 -56 98 99 -100 -101 -126 -133 135 136 138 139 142 143 145 146 151 152 170 0
-96 -142 0
51 -142 0
-51 96 142 0
96 -143 0
-51 -143 0
51 -96 143 0
-143 -170 0
53 -54 55 56 98 -99 100 101 -126 -133 135 136 138 139 142 143 145 146 151 152 170 0
-97 -145 0
52 -145 0
-52 97 145 0
97 -146 0
-52 -146 0
52 -97 146 0
-146 -170 0
53 -54 55 -56 98 -99 100 -101 -126 -133 135 136 138 139 142 143 145 146 151 152 170 0
53 -54 -55 56 98 -99 -100 101 -126 -133 135 136 138 139 142 143 145 146 151 152 170 0
53 -54 -55 -56 98 -99 -100 -101 -126 -133 135 136 138 139 142 143 145 146 151 152 170 0
-53 54 55 56 -98 99 100 101 -126 -133 135 136 138 139 142 143 145 146 151 152 170 0
-102 -151 0
57 -151 0
-57 102 151 0
102 -152 0
-57 -152 0
57 -102 152 0
-152 -170 0
-53 54 55 -56 -98 99 100 -101 -126 -133 135 136 138 139 142 143 145 146 151 152 170 0
-53 54 -55 -56 -98 99 -100 -101 -126 -133 135 136 138 139 142 143 145 146 151 152 170 0
-53 -54 55 -56 -98 -99 100 -101 -126 -133 135 136 138 139 142 143 145 146 151 152 170 0
-53 -54 55 56 -98 -99 100 101 -126 -133 135 136 138 139 142 143 145 146 151 152 170 0
-53 -54 -55 56 -98 -99 -100 101 -126 -133 135 136 138 139 142 143 145 146 151 152 170 0
126 -170 0
-138 -170 0
-151 -170 0
-135 -170 0
-142 -170 0
-53 54 -55 56 -98 99 -100 101 -126 -133 135 136 138 139 142 143 145 146 151 152 170 0
-53 -54 -55 -56 -98 -99 -100 -101 -126 -133 135 136 138 139 142 143 145 146 151 152 170 0
-145 -170 0
13 14 15 -16 58 59 60 -61 185 0
-13 58 -185 0
13 14 -15 -16 58 59 -60 -61 185 0
13 -58 -185 0
-13 -14 15 16 -58 -59 60 61 185 0
13 14 -15 16 58 59 -60 61 185 0
13 -14 15 16 58 -59 60 61 185 0
-13 -14 -15 16 -58 -59 -60 61 185 0
13 -14 -15 16 58 -59 -60 61 185 0
-14 59 -185 0
-13 14 15 16 -58 59 60 61 185 0
14 -59 -185 0
-13 -14 -15 -16 -58 -59 -60 -61 185 0
13 -14 -15 -16 58 -59 -60 -61 185 0
-13 14 15 -16 -58 59 60 -61 185 0
-13 14 -15 16 -58 59 -60 61 185 0
13 14 15 16 58 59 60 61 185 0
-15 60 -185 0
-13 -14 15 -16 -58 -59 60 -61 185 0
15 -60 -185 0
13 -14 15 -16 58 -59 60 -61 185 0
-13 14 -15 -16 -58 59 -60 -61 185 0
-16 61 -185 0
16 -61 -185 0
17 -18 62 -63 192 0
-17 62 -192 0
-17 -18 -62 -63 192 0
17 -62 -192 0
-17 18 -62 63 192 0
17 18 62 63 192 0
-18 63 -192 0
18 -63 -192 0
-19 -64 195 0
-19 64 -195 0
19 -64 -195 0
19 64 195 0
-20 -65 198 0
-20 65 -198 0
20 -65 -198 0
20 65 198 0
198 -233 0
25 26 27 28 70 71 72 73 -185 -192 -195 -198 202 203 205 206 209 210 212 213 233 0
25 26 27 -28 70 71 72 -73 -185 -192 -195 -198 202 203 205 206 209 210 212 213 233 0
25 26 -27 28 70 71 -72 73 -185 -192 -195 -198 202 203 205 206 209 210 212 213 233 0
-66 -202 0
21 -202 0
-21 66 202 0
66 -203 0
-21 -203 0
21 -66 203 0
-203 -233 0
25 26 -27 -28 70 71 -72 -73 -185 -192 -195 -198 202 203 205 206 209 210 212 213 233 0
-67 -205 0
22 -205 0
-22 67 205 0
67 -206 0
-22 -206 0
22 -67 206 0
-206 -233 0
25 -26 27 28 70 -71 72 73 -185 -192 -195 -198 202 203 205 206 209 210 212 213 233 0
25 -26 27 -28 70 -71 72 -73 -185 -192 -195 -198 202 203 205 206 209 210 212 213 233 0
-68 -209 0
23 -209 0
-23 68 209 0
68 -210 0
-23 -210 0
23 -68 210 0
-210 -233 0
25 -26 -27 28 70 -71 -72 73 -185 -192 -195 -198 202 203 205 206 209 210 212 213 233 0
-69 -212 0
24 -212 0
-24 69 212 0
69 -213 0
-24 -213 0
24 -69 213 0
-213 -233 0
25 -26 -27 -28 70 -71 -72 -73 -185 -192 -195 -198 202 203 205 206 209 210 212 213 233 0
-25 26 27 28 -70 71 72 73 -185 -192 -195 -198 202 203 205 206 209 210 212 213 233 0
-25 26 27 -28 -70 71 72 -73 -185 -192 -195 -198 202 203 205 206 209 210 212 213 233 0
-25 26 -27 -28 -70 71 -72 -73 -185 -192 -195 -198 202 203 205 206 209 210 212 213 233 0
-25 -26 27 -28 -70 -71 72 -73 -185 -192 -195 -198 202 203 205 206 209 210 212 213 233 0
-209 -233 0
-25 -26 27 28 -70 -71 72 73 -185 -192 -195 -198 202 203 205 206 209 210 212 213 233 0
-25 -26 -27 28 -70 -71 -72 73 -185 -192 -195 -198 202 203 205 206 209 210 212 213 233 0
195 -233 0
185 -233 0
192 -233 0
-202 -233 0
-205 -233 0
-25 26 -27 28 -70 71 -72 73 -185 -192 -195 -198 202 203 205 206 209 210 212 213 233 0
-212 -233 0
-25 -26 -27 -28 -70 -71 -72 -73 -185 -192 -195 -198 202 203 205 206 209 210 212 213 233 0
29 30 31 -32 74 75 76 -77 248 0
29 30 -31 -32 74 75 -76 -77 248 0
-29 -30 31 32 -74 -75 76 77 248 0
29 30 -31 32 74 75 -76 77 248 0
29 -30 31 32 74 -75 76 77 248 0
-29 -30 -31 32 -74 -75 -76 77 248 0
29 -30 -31 32 74 -75 -76 77 248 0
-29 30 31 32 -74 75 76 77 248 0
-29 -30 -31 -32 -74 -75 -76 -77 248 0
29 -30 -31 -32 74 -75 -76 -77 248 0
-29 30 31 -32 -74 75 76 -77 248 0
-29 30 -31 32 -74 75 -76 77 248 0
29 30 31 32 74 75 76 77 248 0
-29 -30 31 -32 -74 -75 76 -77 248 0
29 -30 31 -32 74 -75 76 -77 248 0
-29 30 -31 -32 -74 75 -76 -77 248 0
33 34 35 -36 78 79 80 -81 263 0
33 34 -35 -36 78 79 -80 -81 263 0
-33 -34 35 36 -78 -79 80 81 263 0
33 34 -35 36 78 79 -80 81 263 0
33 -34 35 36 78 -79 80 81 263 0
-33 -34 -35 36 -78 -79 -80 81 263 0
33 -34 -35 36 78 -79 -80 81 263 0
-33 34 35 36 -78 79 80 81 263 0
-33 -34 -35 -36 -78 -79 -80 -81 263 0
33 -34 -35 -36 78 -79 -80 -81 263 0
-33 34 35 -36 -78 79 80 -81 263 0
-33 34 -35 36 -78 79 -80 81 263 0
33 34 35 36 78 79 80 81 263 0
-33 -34 35 -36 -78 -79 80 -81 263 0
33 -34 35 -36 78 -79 80 -81 263 0
-33 34 -35 -36 -78 79 -80 -81 263 0
42 43 44 87 88 89 -170 -233 -248 -263 265 266 268 269 272 273 275 276 280 281 -300 0
-82 -265 0
37 -265 0
82 -266 0
-37 -266 0
42 43 44 87 88 89 118 -119 -170 -233 -248 -263 265 266 268 269 272 273 275 276 280 281 0
-83 -268 0
38 -268 0
83 -269 0
-38 -269 0
42 43 -44 87 88 -89 -170 -233 -248 -263 265 266 268 269 272 273 275 276 280 281 -300 0
42 43 -44 87 88 -89 118 -119 -170 -233 -248 -263 265 266 268 269 272 273 275 276 280 281 0
-84 -272 0
39 -272 0
84 -273 0
-39 -273 0
42 -43 44 87 -88 89 -170 -233 -248 -263 265 266 268 269 272 273 275 276 280 281 -300 0
-85 -275 0
40 -275 0
85 -276 0
-40 -276 0
42 -43 44 87 -88 89 118 -119 -170 -233 -248 -263 265 266 268 269 272 273 275 276 280 281 0
42 -43 -44 87 -88 -89 -170 -233 -248 -263 265 266 268 269 272 273 275 276 280 281 -300 0
42 -43 -44 87 -88 -89 118 -119 -170 -233 -248 -263 265 266 268 269 272 273 275 276 280 281 0
-86 -280 0
41 -280 0
86 -281 0
-41 -281 0
-42 43 44 -87 88 89 -170 -233 -248 -263 265 266 268 269 272 273 275 276 280 281 -300 0
-42 43 -44 -87 88 -89 -170 -233 -248 -263 265 266 268 269 272 273 275 276 280 281 -300 0
-42 43 44 -87 88 89 118 -119 -170 -233 -248 -263 265 266 268 269 272 273 275 276 280 281 0
-42 -43 44 -87 -88 89 -170 -233 -248 -263 265 266 268 269 272 273 275 276 280 281 -300 0
-42 43 -44 -87 88 -89 118 -119 -170 -233 -248 -263 265 266 268 269 272 273 275 276 280 281 0
-42 -43 44 -87 -88 89 118 -119 -170 -233 -248 -263 265 266 268 269 272 273 275 276 280 281 0
-42 -43 -44 -87 -88 -89 -170 -233 -248 -263 265 266 268 269 272 273 275 276 280 281 -300 0
-42 -43 -44 -87 -88 -89 118 -119 -170 -233 -248 -263 265 266 268 269 272 273 275 276 280 281 0
-119 -300 0
118 -300 0
-118 119 300 0
43 -303 0
13 -303 0
-13 -43 303 0
-18 -314 566 0
18 -303 -352 0
303 -319 566 0
11 13 114 355 0
-11 114 -355 0
303 -334 566 0
-11 -114 -309 0
11 -114 -355 0
13 340 341 566 0
-11 48 114 309 0
-11 13 -114 355 0
11 48 114 355 0
303 -324 566 0
-13 -48 -309 0
303 -339 566 0
-11 48 -114 355 0
-13 -48 -355 0
11 48 -114 309 0
9 13 112 356 0
-9 112 -356 0
-13 -21 303 309 314 319 324 -327 334 339 352 0
-9 -112 -314 0
9 -112 -356 0
303 309 314 319 324 -327 334 339 -341 352 0
-9 27 112 314 0
-9 13 -112 356 0
9 27 112 356 0
21 303 340 341 566 0
-13 -27 -314 0
303 309 314 319 324 -327 334 339 -340 352 0
-9 27 -112 356 0
-13 -27 -356 0
9 27 -112 314 0
8 13 110 357 0
-8 110 -357 0
-13 -23 303 309 314 319 324 334 339 -341 352 0
-8 -110 -319 0
8 -110 -357 0
-13 -23 303 309 314 319 324 334 339 -340 352 0
-8 14 110 319 0
-8 13 -110 357 0
8 14 110 357 0
-13 -21 -23 303 309 314 319 324 334 339 352 0
-13 -14 -319 0
13 327 566 0
-8 14 -110 357 0
-13 -14 -357 0
8 14 -110 319 0
-6 -109 322 0
-6 109 -322 0
6 -109 -322 0
6 109 322 0
23 303 327 566 0
13 -322 -366 0
-13 -44 -324 0
-322 -324 0
-13 -21 -44 327 332 337 366 0
44 322 324 0
-5 -108 327 0
-5 108 -327 0
5 -108 -327 0
5 108 327 0
13 68 327 594 0
-13 -23 -33 -54 322 340 341 366 0
23 -68 327 -594 0
68 -327 352 -594 0
13 327 -352 0
-13 -18 -23 309 314 319 324 334 339 -341 352 0
-4 -107 332 0
-4 107 -332 0
-13 -23 309 314 319 324 334 339 -341 -566 0
4 -107 -332 0
13 -327 -366 0
4 107 332 0
-13 -23 309 314 319 324 334 339 -340 -566 0
-18 23 327 566 0
13 -332 -366 0
-13 -54 -334 0
23 327 -352 0
-332 -334 0
-13 -21 -54 322 327 337 366 0
54 332 334 0
-3 -106 337 0
-3 106 -337 0
3 -106 -337 0
3 106 337 0
303 -314 566 0
13 -337 -366 0
-13 -33 -339 0
-337 -339 0
-13 -21 -33 322 327 332 366 0
33 337 339 0
-2 -340 0
-105 -340 0
2 105 340 0
2 -341 0
105 -341 0
-2 -105 341 0
-1 -66 -67 -340 352 590 0
-13 -33 322 327 332 340 341 366 0
66 -341 352 -590 0
13 -66 340 341 -590 0
-13 -23 -68 352 594 0
1 21 66 67 340 341 590 0
-18 309 314 319 324 -327 334 339 -340 352 0
13 340 341 -352 0
-13 -18 -23 309 314 319 324 334 339 -340 352 0
-18 309 314 319 324 -327 334 339 -341 352 0
-13 -21 66 352 -590 0
309 314 319 324 -327 334 339 -340 -566 0
-18 21 340 341 566 0
1 -13 -21 -66 67 352 590 0
-13 -23 68 352 -594 0
-68 -327 352 594 0
-339 -352 0
21 340 341 -352 0
-18 -334 566 0
-334 -352 0
-13 -18 -21 309 314 319 324 -327 334 339 352 0
23 68 327 594 0
309 314 319 324 -327 334 339 -341 -566 0
-18 -324 566 0
-324 -352 0
1 -66 67 -341 352 590 0
-18 -319 566 0
-319 -352 0
-13 -21 -23 309 314 319 324 334 339 -566 0
18 -303 -566 0
21 -66 340 341 -590 0
-314 -352 0
18 303 354 0
-13 -18 -354 0
21 -341 -366 0
-303 -354 0
13 354 0
13 -341 -366 0
11 114 -309 0
11 13 -114 309 0
-11 13 114 309 0
9 112 -314 0
9 13 -112 314 0
-9 13 112 314 0
8 110 -319 0
8 13 -110 319 0
-8 13 110 319 0
-13 -44 -54 327 337 340 341 366 0
44 -322 -366 0
-13 -21 -23 -33 -44 -54 366 0
-13 -21 -33 -44 -54 327 366 0
13 -68 327 -594 0
-13 -21 -33 -44 327 332 366 0
-13 -21 -23 -33 -54 322 366 0
54 -332 -366 0
-13 -23 -33 -44 -54 340 341 366 0
-13 -23 -33 -44 332 340 341 366 0
33 -337 -366 0
-13 -44 327 332 337 340 341 366 0
13 322 324 0
1 13 66 67 340 341 590 0
-13 -33 -44 -54 327 340 341 366 0
-13 -21 -23 -44 332 337 366 0
-13 -21 -23 -44 -54 337 366 0
13 332 334 0
-13 -21 -44 -54 327 337 366 0
-13 -21 -23 -33 -44 332 366 0
-13 -21 -23 -54 322 337 366 0
-13 -33 -44 327 332 340 341 366 0
-13 -23 -44 332 337 340 341 366 0
-13 -23 -33 322 332 340 341 366 0
-13 -21 -23 322 332 337 366 0
-13 -23 322 332 337 340 341 366 0
-13 -23 -54 322 337 340 341 366 0
-58 63 64 65 105 -357 541 542 555 556 558 559 563 564 566 582 0
45 -46 352 354 355 356 357 -366 -400 0
-58 63 64 65 105 -356 541 542 555 556 558 559 563 564 566 582 0
-58 63 -64 65 105 352 354 355 356 357 -366 376 -381 541 542 555 556 558 559 563 564 566 582 0
-64 -357 -582 0
-58 63 64 65 105 -355 541 542 555 556 558 559 563 564 566 582 0
352 354 355 356 357 -366 -376 381 -656 0
-64 -356 -582 0
-58 63 64 65 105 -354 541 542 555 556 558 559 563 564 566 582 0
-64 -355 -582 0
13 -90 -381 389 0
-45 90 352 354 355 356 357 -366 -381 388 0
-355 -399 0
10 113 -376 0
10 13 -113 376 0
-90 -355 389 0
-10 13 113 376 0
-58 -63 64 -65 -105 -356 541 542 555 556 558 559 563 564 -566 582 0
-10 -113 -376 0
-356 -655 0
-58 -63 64 65 105 -356 541 542 555 556 558 559 563 564 -566 582 0
-355 -388 0
-13 -19 -376 0
-356 -399 0
10 19 -113 376 0
-10 19 113 376 0
-58 63 64 -65 -105 -356 541 542 555 556 558 559 563 564 566 582 0
12 111 -381 0
12 13 -111 381 0
-90 -356 389 0
-12 13 111 381 0
-58 -63 64 -65 -105 -357 541 542 555 556 558 559 563 564 -566 582 0
-12 -111 -381 0
-357 -655 0
-58 -63 64 65 105 -357 541 542 555 556 558 559 563 564 -566 582 0
-356 -388 0
-13 -37 -381 0
-357 -399 0
12 37 -111 381 0
-12 37 111 381 0
-58 63 64 -65 -105 -357 541 542 555 556 558 559 563 564 566 582 0
46 -91 -376 400 0
-91 -354 400 0
-45 46 91 352 354 355 356 357 -366 376 381 399 0
46 -91 -381 400 0
45 -90 -381 389 0
-91 -356 400 0
46 -376 -399 0
-13 -45 -90 376 381 389 0
45 90 352 354 355 356 357 -366 376 381 388 0
46 -381 -399 0
-45 352 354 355 356 357 -366 -376 -389 0
13 -399 0
-355 -655 0
45 -376 -388 0
-58 -63 64 65 105 -355 541 542 555 556 558 559 563 564 -566 582 0
-90 -352 389 0
-58 63 64 -65 -105 -355 541 542 555 556 558 559 563 564 566 582 0
-90 -388 0
-91 -357 400 0
90 -389 0
-352 -388 0
-58 -63 64 -65 -105 -355 541 542 555 556 558 559 563 564 -566 582 0
-389 -539 0
2 -99 -100 101 -111 334 352 388 389 399 400 403 404 407 408 412 413 415 416 419 420 513 514 519 520 522 523 539 0
-90 -357 389 0
45 -90 -376 389 0
-13 -45 376 381 -388 0
45 352 354 355 356 357 -366 376 381 -389 0
-45 -46 376 381 -399 0
45 46 -91 400 0
-13 -45 -46 -118 -512 0
-91 -355 400 0
13 -90 -376 389 0
-45 46 352 354 355 356 357 -366 376 381 -400 0
45 46 -399 0
-45 352 354 355 356 357 -366 -381 -389 0
-91 366 400 0
-45 90 352 354 355 356 357 -366 -376 388 0
-58 63 64 65 105 366 541 542 555 556 558 559 563 564 566 582 0
13 -91 400 0
366 -655 0
-91 -352 400 0
45 -381 -388 0
-64 366 -582 0
-91 -399 0
64 352 354 355 356 357 -366 376 -381 -582 0
-90 -354 389 0
91 -400 0
-352 -399 0
-45 -46 -91 376 381 400 0
-400 -539 0
-2 -99 -100 -101 -111 334 352 388 389 399 400 403 404 407 408 412 413 415 416 419 420 513 514 519 520 522 523 539 0
-58 -63 64 65 105 366 541 542 555 556 558 559 563 564 -566 582 0
-58 -63 64 -65 -105 366 541 542 555 556 558 559 563 564 -566 582 0
2 -99 100 101 111 334 352 388 389 399 400 403 404 407 408 412 413 415 416 419 420 513 514 519 520 522 523 539 0
366 -399 0
-92 -403 0
103 -403 0
92 -103 403 0
92 -404 0
-103 -404 0
-92 103 404 0
-404 -539 0
-2 -99 100 -101 111 334 352 388 389 399 400 403 404 407 408 412 413 415 416 419 420 513 514 519 520 522 523 539 0
-90 366 389 0
-93 -309 408 0
93 309 352 407 0
-13 -23 -44 -54 337 340 341 366 0
-93 -407 0
-352 -407 0
309 352 -408 0
93 -408 0
-309 -407 0
-93 -352 408 0
-408 -539 0
2 99 -100 101 -111 -334 388 389 399 400 403 404 407 408 412 413 415 416 419 420 513 514 519 520 522 523 539 0
13 337 339 0
-13 -21 -23 -33 322 332 366 0
-2 99 -100 -101 -111 -334 388 389 399 400 403 404 407 408 412 413 415 416 419 420 513 514 519 520 522 523 539 0
-13 -54 322 327 337 340 341 366 0
-13 -33 -54 322 327 340 341 366 0
2 99 100 101 111 -334 388 389 399 400 403 404 407 408 412 413 415 416 419 420 513 514 519 520 522 523 539 0
-1 13 66 -67 340 341 590 0
-94 -412 0
112 -412 0
94 -112 412 0
94 -413 0
-112 -413 0
-94 112 413 0
-413 -539 0
-2 99 100 -101 111 -334 388 389 399 400 403 404 407 408 412 413 415 416 419 420 513 514 519 520 522 523 539 0
322 327 332 337 340 341 366 0
-95 -415 0
4 -415 0
-4 95 415 0
95 -416 0
-4 -416 0
4 -95 416 0
-416 -539 0
2 99 -100 101 -111 -352 389 400 403 404 408 412 413 415 416 419 420 513 514 519 520 522 523 539 0
-13 -21 322 327 332 337 366 0
-2 99 -100 -101 -111 -352 389 400 403 404 408 412 413 415 416 419 420 513 514 519 520 522 523 539 0
-96 -419 0
114 -419 0
96 -114 419 0
96 -420 0
-114 -420 0
-96 114 420 0
-420 -539 0
2 99 100 101 111 -352 389 400 403 404 408 412 413 415 416 419 420 513 514 519 520 522 523 539 0
-13 -52 -512 0
2 52 56 437 438 439 442 444 447 449 451 454 456 459 461 464 466 469 471 474 476 479 481 484 512 0
13 88 89 -300 -352 -539 -619 -634 -650 656 658 659 662 663 665 666 670 671 673 674 0
-7 35 39 47 437 0
1 -7 -13 22 -39 -437 0
-1 13 437 0
-1 -7 -13 -22 -39 -437 0
1 7 22 39 -437 0
22 88 89 -300 303 -324 -539 -619 -634 -650 655 656 658 659 662 663 665 666 670 671 673 674 0
7 -13 -35 -39 -47 437 0
47 -88 -89 -300 -303 324 352 -539 -619 -634 -650 655 656 658 659 662 663 665 666 670 671 673 674 0
47 -438 0
-7 13 437 0
-1 22 35 47 437 0
47 -88 89 -300 -303 -324 -539 -619 -634 -650 655 656 658 659 662 663 665 666 670 671 673 674 0
13 88 -89 -300 324 352 -539 -619 -634 -650 655 656 658 659 662 663 665 666 670 671 673 674 0
13 -438 0
-47 88 89 -300 -352 -539 -619 -634 -650 656 658 659 662 663 665 666 670 671 673 674 0
-13 -22 43 47 -88 -89 -300 324 352 -539 -619 -634 -650 655 656 658 659 662 663 665 666 670 671 673 674 0
-1 22 -35 -47 437 0
-13 35 -47 -437 0
22 88 -89 -300 303 324 352 -539 -619 -634 -650 655 656 658 659 662 663 665 666 670 671 673 674 0
1 -13 -35 47 439 0
-7 -35 39 -47 437 0
47 -88 89 -300 -303 -352 -539 -619 -634 -650 656 658 659 662 663 665 666 670 671 673 674 0
-13 -35 47 -437 0
-47 -439 0
1 -13 -22 35 47 437 0
-1 7 -13 -22 39 -437 0
-35 -438 0
7 -438 0
22 88 89 -300 303 -352 -539 -619 -634 -650 656 658 659 662 663 665 666 670 671 673 674 0
-1 -439 0
35 -439 0
13 -439 0
-13 -17 -113 -118 -512 0
-10 -12 -103 -118 -512 0
10 -13 -17 103 -118 -512 0
16 -442 0
17 -442 0
13 -442 0
13 -556 0
-13 -16 -444 0
10 -444 0
-13 15 -16 -60 556 0
13 60 555 0
13 -103 -118 -512 0
-13 -57 -111 -118 -512 0
-10 57 -103 -118 -512 0
12 -13 -57 103 -118 -512 0
55 -447 0
57 -447 0
13 -447 0
-13 16 26 -55 549 0
-13 -55 -449 0
17 57 -103 -118 -512 0
12 -449 0
-13 15 -55 -60 556 0
16 55 -556 0
51 -114 116 -118 -512 0
-11 -13 -51 451 0
55 -549 0
11 -451 0
51 -114 115 -118 -512 0
-13 -25 -51 114 -118 -512 0
51 104 -114 -118 -512 0
11 -13 -25 51 454 0
25 -454 0
-11 25 -114 -118 -512 0
-11 -454 0
-51 -454 0
49 -112 116 -118 -512 0
-9 -13 -49 456 0
9 -456 0
49 -112 -115 -118 -512 0
-13 -29 -49 112 -118 -512 0
49 104 -112 -118 -512 0
9 -13 -29 49 459 0
29 -459 0
-9 29 -112 -118 -512 0
-9 -459 0
-49 -459 0
41 -110 -116 -118 -512 0
-8 -13 -41 461 0
8 -461 0
41 -110 115 -118 -512 0
-13 -32 -41 110 -118 -512 0
41 104 -110 -118 -512 0
8 -13 -32 41 464 0
32 -464 0
-8 32 -110 -118 -512 0
-8 -464 0
-41 -464 0
36 -109 -116 -118 -512 0
-6 -13 -36 466 0
6 -466 0
36 -109 -115 -118 -512 0
-13 -36 -38 109 -118 -512 0
36 104 -109 -118 -512 0
6 -13 36 -38 469 0
38 -469 0
-6 38 -109 -118 -512 0
-6 -469 0
-36 -469 0
13 -108 705 0
-5 -13 -31 471 0
5 -471 0
31 -471 0
-13 -31 -705 0
-5 13 -108 -118 -512 0
5 -13 31 -42 474 0
42 -474 0
-5 42 -108 -118 -512 0
13 -118 -512 -705 0
-5 -474 0
-31 -474 0
13 -107 703 0
-4 -13 -28 476 0
4 -476 0
28 -476 0
-13 -28 -703 0
-4 13 -107 -118 -512 0
4 -13 28 -50 479 0
50 -479 0
-4 50 -107 -118 -512 0
13 -118 -512 -703 0
-4 -479 0
-28 -479 0
13 -106 700 0
-3 -13 -24 481 0
3 -481 0
24 -481 0
-13 -24 -700 0
-3 13 -106 -118 -512 0
3 -13 24 -53 484 0
53 -484 0
-3 53 -106 -118 -512 0
13 -118 -512 -700 0
-3 -484 0
-24 -484 0
20 52 56 437 438 439 442 444 447 449 451 454 456 459 461 464 466 469 471 474 476 479 481 484 512 0
-13 -20 -56 105 -118 -512 0
13 -105 701 0
13 -118 -341 -512 0
2 -13 20 -56 -512 0
56 -118 -341 -512 0
13 -118 -512 -701 0
13 437 444 449 512 0
2 -20 52 437 438 439 442 444 447 449 451 454 456 459 461 464 466 469 471 474 476 479 481 484 512 0
-484 -512 0
-481 -512 0
-479 -512 0
-476 -512 0
-474 -512 0
-471 -512 0
-469 -512 0
-466 -512 0
-464 -512 0
-461 -512 0
-459 -512 0
-456 -512 0
-454 -512 0
-451 -512 0
-449 -512 0
-447 -512 0
-444 -512 0
-442 -512 0
-439 -512 0
-438 -512 0
-437 -512 0
-97 -513 0
-512 -513 0
97 512 513 0
97 -514 0
512 -514 0
-97 -512 514 0
-514 -539 0
-2 99 100 -101 111 -352 389 400 403 404 408 412 413 415 416 419 420 513 514 519 520 522 523 539 0
-388 -539 0
-399 -539 0
-357 -388 0
-102 -519 0
12 -519 0
-12 102 519 0
102 -520 0
-12 -520 0
12 -102 520 0
-520 -539 0
-403 -539 0
-98 -522 0
3 -522 0
-3 98 522 0
98 -523 0
-3 -523 0
3 -98 523 0
-523 -539 0
-407 -539 0
-1 -13 -21 -66 -67 352 590 0
-13 -21 -33 -54 322 327 366 0
-412 -539 0
366 -388 0
-419 -539 0
-519 -539 0
-415 -539 0
-513 -539 0
-522 -539 0
-58 63 64 -65 -105 366 541 542 555 556 558 559 563 564 566 582 0
-59 -319 542 0
59 319 352 541 0
-59 -541 0
-352 -541 0
319 352 -542 0
59 -542 0
-319 -541 0
-59 -352 542 0
-542 -582 0
-58 -63 64 -65 -105 -352 542 555 556 558 559 563 564 -566 582 0
-58 -63 64 65 105 -352 542 555 556 558 559 563 564 -566 582 0
-13 -26 -71 72 73 107 -352 547 -582 -590 -594 595 596 600 601 619 0
26 71 -72 -73 -107 314 352 549 -582 -590 -594 595 596 600 601 619 0
13 71 72 73 107 -352 -582 -590 -594 595 596 600 601 619 0
26 71 72 -73 -107 -314 549 -582 -590 -594 595 596 600 601 619 0
-10 16 444 0
26 71 -72 73 107 314 352 549 -582 -590 -594 595 596 600 601 619 0
-55 -547 0
16 55 60 555 0
-12 13 449 0
26 71 72 -73 -107 -352 549 -582 -590 -594 595 596 600 601 619 0
-13 -16 17 113 -118 -512 0
26 71 72 73 107 -314 549 -582 -590 -594 595 596 600 601 619 0
-26 -549 0
-16 -549 0
-13 15 -16 -555 0
-13 -55 57 111 -118 -512 0
-12 55 449 0
-13 -16 -26 55 547 0
26 -547 0
-60 -549 556 0
13 -549 0
-60 -547 556 0
16 -547 0
-60 -555 0
-549 -555 0
60 -556 0
-547 -555 0
-15 547 549 -556 0
-556 -582 0
-58 63 64 -65 -105 -354 541 542 555 556 558 559 563 564 566 582 0
-61 -558 0
113 -558 0
61 -113 558 0
61 -559 0
-113 -559 0
-61 113 559 0
-559 -582 0
-354 -399 0
-46 352 354 355 356 357 -366 -381 -400 0
-46 352 354 355 356 357 -366 -376 -400 0
-62 -563 0
10 -563 0
-10 62 563 0
62 -564 0
-10 -564 0
10 -62 564 0
-564 -582 0
-58 -63 64 -65 -105 -376 541 542 555 556 558 559 563 564 -566 582 0
-18 -309 566 0
-309 -352 0
1 -66 67 -340 352 590 0
-58 -63 64 -65 -105 381 541 542 555 556 558 559 563 564 -566 582 0
63 -566 -582 0
-58 63 64 -65 -105 -352 542 555 556 558 559 563 564 566 582 0
-63 566 -582 0
58 -582 0
-58 -63 64 65 105 381 541 542 555 556 558 559 563 564 -566 582 0
-58 63 64 65 105 -352 542 555 556 558 559 563 564 566 582 0
-558 -582 0
-555 -582 0
-354 -388 0
-58 63 64 65 105 381 541 542 555 556 558 559 563 564 566 582 0
45 -46 91 352 354 355 356 357 -366 399 0
-58 -63 -64 -65 -105 352 354 355 356 357 -366 376 -381 541 542 555 556 558 559 563 564 -566 582 0
-58 63 64 65 105 -376 541 542 555 556 558 559 563 564 566 582 0
-58 -63 64 65 105 -376 541 542 555 556 558 559 563 564 -566 582 0
-354 -655 0
-58 63 64 -65 -105 381 541 542 555 556 558 559 563 564 566 582 0
-64 381 -582 0
-64 -352 -582 0
-64 -376 -582 0
-541 -582 0
-46 91 352 354 355 356 357 -366 -376 399 0
-58 63 64 -65 -105 -376 541 542 555 556 558 559 563 564 566 582 0
-563 -582 0
-58 -63 64 65 105 -354 541 542 555 556 558 559 563 564 -566 582 0
65 -105 -582 0
-65 105 -582 0
-1 -66 -67 -341 352 590 0
21 -340 -366 0
-1 66 -67 -352 590 0
-1 21 66 -67 340 341 590 0
66 -340 352 -590 0
1 66 67 -352 590 0
-18 -339 566 0
-66 -352 -590 0
13 -340 -366 0
-1 67 -590 0
1 -67 -590 0
303 -309 566 0
-13 -18 -21 -23 309 314 319 324 334 339 352 0
68 -352 594 0
-13 -21 309 314 319 324 -327 334 339 -566 0
-68 -352 -594 0
23 -327 -366 0
-69 -595 0
106 -595 0
69 -106 595 0
69 -596 0
-106 -596 0
-69 106 596 0
-596 -619 0
71 -72 -73 -107 314 352 -547 -582 -590 -594 595 596 600 601 619 0
71 -72 73 107 314 352 -547 -582 -590 -594 595 596 600 601 619 0
71 72 -73 -107 -314 -547 -582 -590 -594 595 596 600 601 619 0
-70 -600 0
11 -600 0
-11 70 600 0
70 -601 0
-11 -601 0
11 -70 601 0
-601 -619 0
71 72 73 107 -314 -547 -582 -590 -594 595 596 600 601 619 0
-10 13 444 0
13 71 -72 73 107 314 352 -582 -590 -594 595 596 600 601 619 0
-71 72 73 107 -352 547 -549 -582 -590 -594 595 596 600 601 619 0
71 72 -73 -107 -352 -547 -582 -590 -594 595 596 600 601 619 0
-13 -26 -71 -72 73 107 314 352 547 -582 -590 -594 595 596 600 601 619 0
-71 72 -73 -107 -314 547 -549 -582 -590 -594 595 596 600 601 619 0
-71 -72 -73 -107 314 352 547 -549 -582 -590 -594 595 596 600 601 619 0
-13 -26 -71 72 -73 -107 -352 547 -582 -590 -594 595 596 600 601 619 0
71 72 73 107 -352 -547 -582 -590 -594 595 596 600 601 619 0
26 71 72 73 107 -352 549 -582 -590 -594 595 596 600 601 619 0
-71 72 73 107 -314 547 -549 -582 -590 -594 595 596 600 601 619 0
-71 72 -73 -107 -352 547 -549 -582 -590 -594 595 596 600 601 619 0
-13 -26 -71 72 -73 -107 -314 547 -582 -590 -594 595 596 600 601 619 0
13 71 -72 -73 -107 314 352 -582 -590 -594 595 596 600 601 619 0
-13 -26 -71 -72 -73 -107 314 352 547 -582 -590 -594 595 596 600 601 619 0
13 71 72 -73 -107 -352 -582 -590 -594 595 596 600 601 619 0
13 71 72 -73 -107 -314 -582 -590 -594 595 596 600 601 619 0
590 -619 0
-71 -72 73 107 314 352 547 -549 -582 -590 -594 595 596 600 601 619 0
13 -547 0
-600 -619 0
-595 -619 0
13 71 72 73 107 -314 -582 -590 -594 595 596 600 601 619 0
594 -619 0
-13 -26 -71 72 73 107 -314 547 -582 -590 -594 595 596 600 601 619 0
582 -619 0
-8 9 74 -75 -76 -77 -108 -115 634 0
-8 9 74 -75 76 -77 108 -115 634 0
8 -9 -74 75 -76 77 -108 115 634 0
8 9 74 -75 76 77 108 -115 634 0
8 9 74 75 -76 77 -108 115 634 0
8 -9 -74 75 76 77 108 115 634 0
8 9 74 75 76 77 108 115 634 0
8 -9 -74 -75 -76 77 -108 -115 634 0
-8 -9 -74 75 76 -77 108 115 634 0
-8 9 74 75 76 -77 108 115 634 0
-8 -9 -74 -75 -76 -77 -108 -115 634 0
8 -9 -74 -75 76 77 108 -115 634 0
8 9 74 -75 -76 77 -108 -115 634 0
-8 -9 -74 75 -76 -77 -108 115 634 0
-8 9 74 75 -76 -77 -108 115 634 0
-8 -9 -74 -75 76 -77 108 -115 634 0
78 -79 -80 -81 -104 -109 -116 -339 650 0
78 -79 -80 81 -104 109 -116 -352 650 0
-78 -79 80 -81 104 -109 -116 339 352 650 0
-78 -79 -80 -81 -104 -109 -116 339 352 650 0
78 79 -80 -81 -104 -109 116 -352 650 0
-78 79 -80 -81 -104 -109 116 339 352 650 0
78 -79 -80 81 -104 109 -116 -339 650 0
78 79 80 -81 104 -109 116 -339 650 0
-78 -79 80 81 104 109 -116 339 352 650 0
-78 79 -80 81 -104 109 116 339 352 650 0
-78 79 80 81 104 109 116 339 352 650 0
78 -79 80 81 104 109 -116 -352 650 0
78 -79 80 -81 104 -109 -116 -339 650 0
78 -79 -80 -81 -104 -109 -116 -352 650 0
78 -79 80 81 104 109 -116 -339 650 0
78 79 -80 81 -104 109 116 -352 650 0
78 -79 80 -81 104 -109 -116 -352 650 0
78 79 -80 -81 -104 -109 116 -339 650 0
78 79 80 81 104 109 116 -352 650 0
-78 -79 -80 81 -104 109 -116 339 352 650 0
78 79 80 81 104 109 116 -339 650 0
-78 79 80 -81 104 -109 116 339 352 650 0
78 79 -80 81 -104 109 116 -339 650 0
78 79 80 -81 104 -109 116 -352 650 0
-47 88 89 -300 -324 -539 -619 -634 -650 655 656 658 659 662 663 665 666 670 671 673 674 0
-58 63 -64 -65 -105 352 354 355 356 357 -366 376 -381 541 542 555 556 558 559 563 564 566 582 0
-64 -354 -582 0
-58 -63 -64 65 105 352 354 355 356 357 -366 376 -381 541 542 555 556 558 559 563 564 -566 582 0
376 -655 0
-82 -655 0
-381 -655 0
-58 -63 64 -65 -105 -354 541 542 555 556 558 559 563 564 -566 582 0
82 -656 0
-352 -655 0
-7 -13 35 -47 438 0
-83 -658 0
6 -658 0
83 -659 0
-6 -659 0
-47 88 -89 -300 324 352 -539 -619 -634 -650 655 656 658 659 662 663 665 666 670 671 673 674 0
-84 -662 0
7 -662 0
84 -663 0
-7 -663 0
-85 -665 0
117 -665 0
85 -666 0
-117 -666 0
7 -13 35 -39 47 437 0
1 -13 -22 -35 -47 437 0
-13 -22 43 47 -88 89 -300 -324 -539 -619 -634 -650 655 656 658 659 662 663 665 666 670 671 673 674 0
-86 -670 0
110 -670 0
86 -671 0
-110 -671 0
-13 -22 43 47 -88 89 -300 -352 -539 -619 -634 -650 656 658 659 662 663 665 666 670 671 673 674 0
-87 -673 0
5 -673 0
87 -674 0
-5 -674 0
-43 88 -89 -300 303 324 352 -539 -619 -634 -650 655 656 658 659 662 663 665 666 670 671 673 674 0
-43 88 89 -300 303 -324 -539 -619 -634 -650 655 656 658 659 662 663 665 666 670 671 673 674 0
1 7 13 -437 0
13 88 89 -300 -324 -539 -619 -634 -650 655 656 658 659 662 663 665 666 670 671 673 674 0
-43 88 89 -300 303 -352 -539 -619 -634 -650 656 658 659 662 663 665 666 670 671 673 674 0
-46 91 352 354 355 356 357 -366 -381 399 0
1 -103 -118 -512 0
-7 103 -104 -118 -512 0
-12 -447 0
-12 17 -103 -118 -512 0
-10 -442 0
106 -700 0
-13 -24 -53 106 -118 -512 0
24 -106 700 0
105 -701 0
-2 -13 -20 -512 0
20 -105 701 0
-104 109 110 112 114 -118 -512 700 701 703 705 0
107 -703 0
-13 -28 -50 107 -118 -512 0
28 -107 703 0
-13 -41 -51 -104 109 112 -118 -512 700 701 703 705 0
108 -705 0
-13 -31 -42 108 -118 -512 0
31 -108 705 0
-13 -36 -49 -51 -104 110 -118 -512 700 701 703 705 0
-13 -36 -49 -104 110 114 -118 -512 700 701 703 705 0
13 -469 0
13 -451 0
13 -461 0
-13 -36 -41 -49 -51 -104 -118 -512 700 701 703 705 0
13 -466 0
-13 -36 -41 -49 -104 114 -118 -512 700 701 703 705 0
13 -464 0
-13 -36 -104 110 112 114 -118 -512 700 701 703 705 0
13 -456 0
-13 -36 -41 -51 -104 112 -118 -512 700 701 703 705 0
-13 -41 -49 -51 -104 109 -118 -512 700 701 703 705 0
13 -459 0
-13 -49 -51 -104 109 110 -118 -512 700 701 703 705 0
-13 -49 -104 109 110 114 -118 -512 700 701 703 705 0
-13 -41 -49 -104 109 114 -118 -512 700 701 703 705 0
13 -454 0
-13 15 -55 -555 0
-15 60 547 549 555 0
-13 -15 -16 26 -118 -512 0
10 -13 -16 -17 442 0
-13 -16 -55 -118 -512 0
-13 -15 -26 -55 -118 -512 0
-13 -51 -115 -116 -117 -118 -512 0
-13 -49 115 -116 -117 -118 -512 0
29 49 -112 -118 -512 0
-13 -41 -115 116 -117 -118 -512 0
32 41 -110 -118 -512 0
-13 -36 115 116 -117 -118 -512 0
36 38 -109 -118 -512 0
13 -471 0
13 -474 0
42 -118 -512 -705 0
13 -476 0
13 -479 0
50 -118 -512 -703 0
13 -481 0
13 -484 0
53 -118 -512 -700 0
-13 -20 -701 0
56 -118 -512 -701 0
-105 -107 -118 -512 0
-105 -106 -118 -512 0
-105 -108 -118 -512 0
-105 -109 -118 -512 0
-105 -110 -118 -512 0
-105 -112 -118 -512 0
-105 -114 -118 -512 0
-106 -108 -118 -512 0
-106 -107 -118 -512 0
-106 -109 -118 -512 0
-106 -110 -118 -512 0
-106 -112 -118 -512 0
-106 -114 -118 -512 0
-107 -109 -118 -512 0
-107 -108 -118 -512 0
-107 -110 -118 -512 0
-107 -112 -118 -512 0
-107 -114 -118 -512 0
-108 -110 -118 -512 0
-108 -109 -118 -512 0
-108 -112 -118 -512 0
-108 -114 -118 -512 0
-109 -112 -118 -512 0
-109 -110 -118 -512 0
-109 -114 -118 -512 0
-110 -114 -118 -512 0
-110 -112 -118 -512 0
25 51 -114 -118 -512 0
-112 -114 -118 -512 0
12 -13 -55 -57 447 0
-111 -113 -118 -512 0
-115 -118 -512 -701 0
-13 -36 -51 -104 110 112 -118 -512 700 701 703 705 0
-116 -118 -512 -701 0
-117 -118 -512 -701 0
104 -118 -512 -701 0
115 -118 -512 -700 0
-13 -36 -41 -104 112 114 -118 -512 700 701 703 705 0
-116 -118 -512 -700 0
-115 116 117 -118 -512 700 0
104 -118 -512 -700 0
-117 -118 -512 -700 0
110 -115 116 -117 -118 -512 0
-115 -118 -512 -703 0
-13 -41 -104 109 112 114 -118 -512 700 701 703 705 0
116 -118 -512 -703 0
115 -116 117 -118 -512 703 0
104 -118 -512 -703 0
-117 -118 -512 -703 0
112 115 -116 -117 -118 -512 0
115 -118 -512 -705 0
-13 -51 -104 109 110 112 -118 -512 700 701 703 705 0
116 -118 -512 -705 0
-115 -116 117 -118 -512 705 0
104 -118 -512 -705 0
-117 -118 -512 -705 0
114 -115 -116 -117 -118 -512 0
13 -109 -118 -512 0
109 115 116 -117 -118 -512 0
36 -109 117 -118 -512 0
36 -466 0
104 -117 -118 -512 0
13 -110 -118 -512 0
104 -115 -118 -512 0
41 -110 117 -118 -512 0
41 -461 0
13 -112 -118 -512 0
104 -116 -118 -512 0
49 -112 117 -118 -512 0
49 -456 0
-2 20 52 437 438 439 442 444 447 449 451 454 456 459 461 464 466 469 471 474 476 479 481 484 512 0
13 -114 -118 -512 0
51 -114 117 -118 -512 0
51 -451 0
13 14 15 16 17 18 19 20 21 22 23 24 25 26 27 28 29 30 31 32 33 34 35 36 37 38 39 40 41 42 43 44 45 46 47 48 49 50 51 52 53 54 55 56 57 118 0
